conditionSynthesis/results/repairExamples_all_1h_nogrammar/boundaries/tcas/tcas_v31_unknown.boundaries.out
(
(define-fun Condition_0 ((vg_0 Int) (vPositive_RA_Alt_Thresh_0 Int) (mainv%Alt_Layer_Value_0 Int) (mainv%Climb_Inhibit_0 Int) (mainv%Up_Separation_0 Int) (mainv%Down_Separation_0 Int) (mainv%Cur_Vertical_Sep_0 Int) (mainv%Own_Tracked_Alt_0 Int) (mainv%Other_Tracked_Alt_0 Int) (mainv%High_Confidence_0 Int) (mainv%Own_Tracked_Alt_Rate_0 Int) (mainv%Other_Capability_0 Int) (mainv%Two_of_Three_Reports_Valid_0 Int) (mainv%Other_RAC_0 Int) (mainv%sm25_0 (Array Int Int)) (mainv%sm26_0 (Array Int Int)) (mainv%sm27_0 (Array Int Int)) (mainv%sm28_0 (Array Int Int)) (mainv%sm29_0 (Array Int Int)) (mainv%sm30_0 (Array Int Int)) (mainv%sm31_0 (Array Int Int)) (mainv%sm32_0 (Array Int Int)) (mainv%sm33_0 (Array Int Int)) (mainv%sm34_0 (Array Int Int)) (mainv%sm35_0 (Array Int Int)) (mainv%sm36_0 (Array Int Int)) (mainv%sm40_0 (Array Int Int)) (mainv%.0.i.i.i_1 Bool)) Bool (let ((_let_1 (select mainv%sm33_0 mainv%Down_Separation_0))) (let ((_let_2 (not (>= _let_1 400)))) (let ((_let_3 (select mainv%sm40_0 (+ 4 vPositive_RA_Alt_Thresh_0)))) (let ((_let_4 (select mainv%sm31_0 mainv%Alt_Layer_Value_0))) (let ((_let_5 (= _let_4 0))) (let ((_let_6 (select mainv%sm40_0 vPositive_RA_Alt_Thresh_0))) (let ((_let_7 (= _let_6 400))) (let ((_let_8 (= _let_4 1))) (let ((_let_9 (not (>= _let_1 500)))) (let ((_let_10 (= _let_3 500))) (let ((_let_11 (and (= _let_4 2) (not (>= _let_1 640))))) (let ((_let_12 (and (= _let_4 3) (not (>= _let_1 740))))) (let ((_let_13 (>= (select mainv%sm35_0 mainv%Other_Capability_0) 1))) (let ((_let_14 (not _let_13))) (let ((_let_15 (or _let_12 _let_11 (and _let_5 _let_2) (and _let_9 _let_8)))) (let ((_let_16 (= (select mainv%sm34_0 mainv%Other_RAC_0) 0))) (let ((_let_17 (>= (select mainv%sm27_0 mainv%Two_of_Three_Reports_Valid_0) 1))) (let ((_let_18 (+ _let_1 (* (- 1) (select mainv%sm32_0 mainv%Up_Separation_0))))) (let ((_let_19 (>= _let_18 0))) (let ((_let_20 (>= _let_18 100))) (let ((_let_21 (>= (select mainv%sm36_0 mainv%Climb_Inhibit_0) 1))) (let ((_let_22 (>= (select mainv%sm29_0 mainv%Own_Tracked_Alt_Rate_0) 601))) (let ((_let_23 (>= (select mainv%sm25_0 mainv%Cur_Vertical_Sep_0) 601))) (let ((_let_24 (>= (select mainv%sm26_0 mainv%High_Confidence_0) 1))) (let ((_let_25 (not (>= (+ (select mainv%sm28_0 mainv%Own_Tracked_Alt_0) (* (- 1) (select mainv%sm30_0 mainv%Other_Tracked_Alt_0))) 0)))) (let ((_let_26 (not _let_21))) (let ((_let_27 (or (not _let_17) (not _let_16)))) (or mainv%.0.i.i.i_1 (and (or (not (>= _let_4 0)) (not _let_24) (not _let_23) (>= _let_4 4) _let_22 (and (or _let_26 _let_20 (and _let_13 _let_27)) (or _let_19 (and (or _let_13 (not _let_10) (not _let_7)) _let_27)))) (or _let_25 (and _let_19 (or _let_26 _let_20)))) (and _let_25 _let_24 _let_23 (not _let_22) (or (and _let_21 (not _let_20) (or _let_14 (and _let_17 _let_16)) _let_15) (and (not _let_19) (or (and _let_17 _let_16 _let_15) (and _let_14 (or _let_12 _let_11 (and _let_10 _let_9 _let_8 (not (>= _let_6 401))) (and _let_7 _let_5 (not (>= _let_3 501)) _let_2))))))))))))))))))))))))))))))))))))
)
